p cnf 91 377
12 -31 57 58 -73 -78 0
20 -38 41 -54 71 -72 0
1 2 -32 56 59 0
1 2 -32 56 -62 0
-3 -19 -51 67 91 0
-3 -23 -51 67 91 0
-6 -35 36 -61 82 0
7 9 -43 45 46 0
7 9 46 -47 -48 0
-7 -8 -42 -60 -83 0
10 20 22 -69 88 0
13 57 58 -73 79 0
-14 29 -31 58 -73 0
-15 29 -30 -31 -73 0
-16 -50 51 67 68 0
26 -27 -33 34 57 0
-8 -42 45 46 60 0
10 21 22 -72 -77 0
12 13 57 -73 -79 0
-15 29 -31 58 76 0
1 2 -32 56 0
1 42 45 60 0
-1 8 70 -88 0
3 4 -49 -91 0
3 4 51 68 0
3 23 56 59 0
3 23 56 -62 0
-3 -16 51 67 0
-3 -19 67 91 0
-3 51 -68 -86 0
4 -63 -78 84 0
-4 -61 78 -84 0
-5 -6 52 -63 0
-5 -65 74 82 0
7 9 -43 45 0
7 -47 55 64 0
-7 -8 -46 -83 0
10 11 12 -27 0
-11 -14 76 80 0
13 49 67 85 0
-13 66 86 -90 0
-16 -49 -50 67 0
-16 -50 67 68 0
-17 -18 -41 -53 0
-17 22 -72 -77 0
18 39 47 64 0
-18 -19 -40 -69 0
-18 -39 -47 -64 0
-18 -39 -54 81 0
19 -50 51 -68 0
-19 -50 66 89 0
-19 -50 -66 -89 0
-19 -51 -81 -85 0
-20 -22 41 70 0
-21 -69 70 -88 0
-22 -41 53 -72 0
23 -50 -68 -91 0
-23 25 30 65 0
-23 85 -86 91 0
25 -27 -33 -56 0
-30 -36 57 73 0
-39 -40 -43 -87 0
42 -43 46 -87 0
46 -60 83 -87 0
1 10 21 88 0
3 19 68 -91 0
-3 -51 -68 -89 0
-5 52 78 82 0
-6 37 62 -63 0
-8 -46 47 -64 0
-11 -58 -76 80 0
12 -19 -27 -34 0
13 57 58 79 0
13 67 85 91 0
-19 54 -81 -85 0
-21 22 -77 88 0
22 41 53 71 0
23 42 60 69 0
26 28 -31 57 0
-35 -61 65 82 0
-38 53 -54 70 0
1 -7 -42 0
1 -39 -87 0
-1 8 70 0
-1 -10 -70 0
-1 28 56 0
2 3 59 0
2 3 -62 0
-2 -6 61 0
3 4 16 0
3 16 50 0
-3 -23 -89 0
-3 50 -86 0
4 -5 63 0
4 -50 89 0
4 -50 -89 0
4 -50 -91 0
5 52 -78 0
5 -52 -74 0
6 -36 -37 0
7 8 -48 0
7 45 55 0
7 64 -87 0
-7 43 87 0
8 -45 -48 0
-8 -10 -88 0
-8 -39 -64 0
-8 45 87 0
-8 -45 48 0
9 40 64 0
-9 -40 43 0
10 69 -72 0
10 -70 -83 0
-10 24 -26 0
11 -12 73 0
11 -31 -80 0
12 25 34 0
12 25 -80 0
-12 -78 79 0
13 49 67 0
13 49 85 0
13 -51 69 0
13 -51 -85 0
13 85 91 0
-13 41 -70 0
-13 68 90 0
14 -29 30 0
14 78 79 0
15 -58 76 0
-15 58 80 0
17 18 39 0
17 44 -71 0
17 -44 -72 0
-17 -23 -44 0
-17 44 77 0
19 32 34 0
19 38 39 0
19 39 48 0
19 -50 -91 0
19 -76 -80 0
-19 -24 -59 0
-19 -26 -28 0
-19 36 73 0
-19 79 -84 0
-19 -79 84 0
20 -70 71 0
-20 21 70 0
-21 -60 70 0
23 -74 -75 0
-23 -28 31 0
-23 -47 81 0
24 -26 -32 0
24 -32 -33 0
24 35 59 0
24 35 -59 0
24 -35 59 0
24 -35 -59 0
-24 -25 -33 0
25 27 34 0
25 32 33 0
25 -33 -65 0
25 74 75 0
-25 -27 -28 0
27 -34 -57 0
29 -30 -37 0
-29 -30 -73 0
-31 78 -79 0
-32 59 -61 0
-32 -61 -62 0
36 -37 63 0
-36 37 63 0
38 54 72 0
-38 -71 72 0
41 46 48 0
-41 -55 70 0
43 -44 77 0
-44 71 -77 0
45 55 87 0
45 -60 70 0
-45 48 -55 0
49 67 -68 0
50 66 67 0
-51 -68 -81 0
54 -81 -85 0
68 -81 -85 0
68 90 -91 0
69 70 -77 0
-4 -61 -78 84 0
-42 46 60 83 0
1 -10 0
1 21 0
1 59 0
1 -62 0
-1 -5 0
-1 -31 0
-1 -59 0
-1 83 0
-1 -83 0
-1 -90 0
2 3 0
2 5 0
2 6 0
2 -24 0
2 33 0
2 61 0
2 -63 0
2 65 0
2 -75 0
-2 35 0
-2 37 0
-2 -65 0
-2 74 0
3 39 0
3 -51 0
3 56 0
3 60 0
3 -67 0
3 -91 0
-3 -16 0
-3 25 0
-3 44 0
-3 50 0
4 -5 0
4 10 0
4 32 0
4 40 0
4 44 0
4 -52 0
4 -65 0
4 -67 0
4 78 0
4 89 0
4 -91 0
-4 61 0
-4 -63 0
5 -62 0
5 63 0
5 -82 0
5 -84 0
-5 61 0
6 35 0
6 -82 0
-6 29 0
-6 59 0
-6 -65 0
7 8 0
7 60 0
-7 -46 0
-7 83 0
-7 -83 0
-7 -88 0
8 -45 0
8 -50 0
8 -88 0
-8 -9 0
-8 -17 0
-8 46 0
9 40 0
9 47 0
9 -47 0
9 -55 0
9 64 0
-9 -46 0
10 -14 0
10 -33 0
10 -56 0
10 -57 0
10 -68 0
10 -88 0
-10 -11 0
-10 -12 0
-10 27 0
-10 -28 0
-10 83 0
-10 86 0
11 15 0
11 34 0
11 -76 0
11 80 0
-11 12 0
-11 30 0
-11 31 0
-11 -57 0
12 84 0
-12 31 0
-12 -48 0
-12 -57 0
-12 -58 0
-12 -70 0
-12 -79 0
13 -51 0
13 -85 0
13 -90 0
13 91 0
-13 34 0
-13 -49 0
-13 -67 0
-13 90 0
-13 91 0
14 31 0
14 -57 0
14 -58 0
14 73 0
14 -79 0
-14 78 0
15 -29 0
15 30 0
15 31 0
15 -57 0
-15 57 0
-15 -73 0
-15 -80 0
16 -50 0
16 -68 0
-16 -49 0
-16 -91 0
17 19 0
17 -20 0
-17 -40 0
-17 -47 0
18 21 0
18 41 0
18 42 0
18 69 0
-18 -48 0
-18 -53 0
-18 81 0
19 26 0
19 -30 0
19 -36 0
19 41 0
19 47 0
19 -51 0
19 56 0
19 -65 0
19 69 0
19 75 0
19 85 0
-19 -44 0
-19 -47 0
-19 -48 0
-19 52 0
-19 -54 0
-19 -56 0
-19 -60 0
-19 65 0
-19 85 0
-19 86 0
-19 -87 0
-19 -88 0
-19 -89 0
20 -41 0
20 -88 0
-20 -21 0
-20 72 0
-20 77 0
21 -60 0
-21 -42 0
-21 -54 0
22 77 0
-22 -53 0
-22 -71 0
-22 -88 0
23 27 0
23 28 0
23 -30 0
23 -32 0
23 -36 0
23 38 0
23 41 0
23 47 0
23 51 0
23 -71 0
23 74 0
23 76 0
23 -76 0
23 -80 0
